\* Problem: Unknown *\

Maximize
 obj: + xp_0_0 + xp_0_1 + xp_1_0 + xp_1_1 + xp_2_0 + xp_2_1 + xp_3_0
 + xp_3_1 + xp_4_0 + xp_5_0 + xp_6_0 + xp_7_0 + xp_8_0 + xp_9_0 + xp_9_1
 + xp_10_0 + xp_11_0 + xp_11_1 + xp_12_0 + xp_12_1 + xp_12_2 + xp_13_0
 + xp_13_1 + xp_13_2 + xp_14_0 + xp_14_1 + xp_15_0 + xp_16_0 + xp_17_0
 + xp_17_1 + xp_18_0 + xp_18_1 + xp_18_2 + xp_18_3 + xp_19_0 + xp_19_1
 + xp_20_0 + xp_21_0 + xp_22_0 + xp_22_1 + xp_23_0 + xp_24_0 + xp_24_1
 + xp_24_2 + xp_24_3 + xp_25_0 + xp_26_0 + xp_27_0 + xp_28_0 + xp_28_1
 + xp_29_0 + xp_30_0 + xp_30_1 + xp_31_0 + xp_32_0 + xp_32_1 + xp_32_2
 + xp_33_0 + xp_34_0 + xp_34_1 + xp_35_0 + xp_36_0 + xp_37_0 + xp_38_0
 + xp_38_1 + xp_39_0 + xp_40_0 + xp_40_1 + xp_40_2 + xp_41_0 + xp_42_0
 + xp_42_1 + xp_42_2 + xp_43_0 + xp_44_0 + xp_44_1 + xp_45_0 + xp_45_1
 + xp_46_0 + xp_47_0 + xp_48_0 + xp_48_1 + xp_49_0 + xp_50_0 + xp_50_1
 + xp_51_0 + xp_52_0 + xp_53_0 + xp_53_1 + xp_54_0 + xp_55_0 + xp_56_0
 + xp_57_0 + xp_57_1 + xp_58_0 + xp_58_1 + xp_58_2 + xp_58_3 + xp_59_0
 + xp_60_0 + xp_60_1 + xp_61_0 + xp_61_1 + xp_62_0 + xp_63_0 + xp_63_1
 + xp_64_0 + xp_65_0 + xp_65_1 + xp_66_0 + xp_67_0 + xp_67_1 + xp_68_0
 + xp_68_1 + xp_68_2 + xp_68_3 + xp_69_0 + xp_70_0 + xp_71_0 + xp_72_0
 + xp_73_0 + xp_74_0 + xp_74_1 + xp_75_0 + xp_76_0 + xp_77_0 + xp_77_1
 + xp_77_2 + xp_78_0 + xp_78_1 + xp_78_2 + xp_78_3 + xp_78_4 + xp_79_0
 + xp_79_1 + xp_80_0 + xp_80_1 + xp_81_0 + xp_81_1 + xp_82_0 + xp_82_1
 + xp_83_0 + xp_84_0 + xp_85_0 + xp_85_1 + xp_86_0 + xp_86_1 + xp_87_0
 + xp_88_0 + xp_88_1 + xp_89_0 + xp_89_1 + xp_90_0 + xp_90_1 + xp_90_2
 + xp_91_0 + xp_91_1 + xp_91_2 + xp_92_0 + xp_92_1 + xp_92_2 + xp_93_0
 + xp_94_0 + xp_94_1 + xp_94_2 + xp_95_0 + xp_95_1 + xp_95_2 + xp_96_0
 + xp_96_1 + xp_97_0 + xp_98_0 + xp_98_1 + xp_98_2 + xp_99_0 + xp_99_1
 + xp_99_2 + xp_100_0 + xp_101_0 + xp_102_0 + xp_103_0 + xp_104_0
 + xp_105_0 + xp_105_1 + xp_106_0 + xp_106_1 + xp_107_0 + xp_108_0
 + xp_108_1 + xp_108_2 + xp_109_0 + xp_109_1 + xp_110_0 + xp_111_0
 + xp_111_1 + xp_112_0 + xp_112_1 + xp_112_2 + xp_113_0 + xp_114_0
 + xp_115_0 + xp_115_1 + xp_116_0 + xp_116_1 + xp_117_0 + xp_118_0
 + xp_119_0 + xp_119_1 + xp_120_0 + xp_120_1 + xp_120_2 + xp_121_0
 + xp_122_0 + xp_123_0 + xp_123_1 + xp_124_0 + xp_124_1 + xp_125_0
 + xp_125_1 + xp_126_0 + xp_126_1 + xp_126_2 + xp_126_3 + xp_126_4
 + xp_127_0 + xp_127_1 + xp_128_0 + xp_128_1 + xp_128_2 + xp_129_0
 + xp_129_1 + xp_130_0 + xp_131_0 + xp_131_1 + xp_131_2

Subject To
 r_1: + xp_128_2 + xp_128_1 + xp_123_1 + xp_122_0 + xp_121_0 + xp_108_2
 + xp_107_0 + xp_78_3 + xp_67_1 + xp_57_1 + xp_40_2 + xp_40_1 + xp_25_0
 + xp_22_1 + xp_18_3 + xp_18_2 + xp_18_1 + xp_16_0 + xp_13_2 + xp_13_1
 + xp_4_0 <= 40000
 r_2: + xp_131_2 + xp_131_1 + xp_127_1 + xp_126_1 + xp_120_1 + xp_120_0
 + xp_94_2 + xp_94_1 + xp_93_0 + xp_90_1 + xp_89_1 + xp_85_1 + xp_85_0
 + xp_77_2 + xp_77_1 + xp_75_0 + xp_74_1 + xp_71_0 + xp_66_0 + xp_65_1
 + xp_65_0 + xp_61_1 + xp_55_0 + xp_52_0 + xp_48_1 + xp_48_0 + xp_42_2
 + xp_42_1 + xp_38_1 + xp_32_2 + xp_32_0 + xp_28_1 + xp_28_0 + xp_24_3
 + xp_24_2 + xp_24_0 + xp_19_1 + xp_19_0 + xp_12_2 + xp_12_1 + xp_1_1
 <= 39102.2255752546
 r_3: + xp_126_3 + xp_114_0 + xp_105_1 + xp_95_0 + xp_91_2 + xp_76_0
 + xp_68_2 + xp_58_2 + xp_34_0 + xp_32_2 <= 40000
 r_4: + xp_117_0 + xp_112_2 + xp_95_2 + xp_95_1 + xp_91_1 + xp_91_0
 + xp_88_1 + xp_84_0 + xp_79_1 + xp_79_0 + xp_78_4 + xp_46_0 + xp_44_1
 + xp_43_0 + xp_40_2 + xp_40_1 + xp_40_0 + xp_34_1 <= 40000
 r_5: + xp_130_0 + xp_112_2 + xp_99_0 + xp_88_1 + xp_78_4 + xp_44_1
 + xp_7_0 + xp_2_0 <= 40000
 r_6: + xp_126_3 + xp_126_2 + xp_119_0 + xp_114_0 + xp_95_0 + xp_92_1
 + xp_91_2 + xp_83_0 + xp_82_1 + xp_81_0 + xp_70_0 + xp_68_2 + xp_68_1
 + xp_58_2 + xp_58_1 + xp_53_0 + xp_48_1 + xp_45_0 + xp_34_0 + xp_32_2
 + xp_32_1 + xp_30_1 + xp_18_1 <= 40000
 r_7: + xp_119_1 + xp_112_1 + xp_111_1 + xp_104_0 + xp_88_0 + xp_82_0
 + xp_81_1 + xp_78_2 + xp_53_1 + xp_50_1 + xp_45_1 + xp_44_0 + xp_27_0
 + xp_18_3 + xp_18_2 + xp_18_0 + xp_3_1 <= 40000
 r_8: + xp_131_2 + xp_131_1 + xp_127_1 + xp_126_1 + xp_120_1 + xp_120_0
 + xp_118_0 + xp_103_0 + xp_94_2 + xp_94_1 + xp_90_1 + xp_89_1 + xp_77_2
 + xp_77_1 + xp_74_1 + xp_71_0 + xp_61_1 + xp_55_0 + xp_42_2 + xp_42_1
 + xp_38_1 + xp_32_2 + xp_32_0 + xp_24_3 + xp_24_2 + xp_24_0 + xp_12_2
 + xp_12_1 + xp_1_1 <= 40000
 r_9: + xp_131_0 + xp_127_0 + xp_123_1 + xp_122_0 + xp_120_2 + xp_108_2
 + xp_78_3 + xp_77_0 + xp_67_1 + xp_57_1 + xp_42_0 + xp_33_0 + xp_32_1
 + xp_24_1 <= 40000
 r_10: + xp_112_2 + xp_112_1 + xp_111_1 + xp_106_0 + xp_99_0 + xp_98_0
 + xp_88_1 + xp_88_0 + xp_85_0 + xp_78_4 + xp_78_2 + xp_50_1 + xp_26_0
 + xp_24_0 + xp_8_0 + xp_7_0 + xp_3_1 + xp_2_0 <= 40000
 r_11: + xp_119_0 + xp_112_0 + xp_111_0 + xp_95_0 + xp_91_2 + xp_82_1
 + xp_81_0 + xp_78_3 + xp_78_1 + xp_78_0 + xp_59_0 + xp_53_0 + xp_50_0
 + xp_49_0 + xp_45_0 + xp_34_0 + xp_18_1 + xp_4_0 + xp_3_0 <= 40000
 r_12: + xp_129_1 + xp_128_1 + xp_128_0 + xp_123_0 + xp_117_0 + xp_112_2
 + xp_112_1 + xp_111_1 + xp_108_1 + xp_101_0 + xp_95_1 + xp_91_1
 + xp_82_0 + xp_81_1 + xp_80_1 + xp_79_1 + xp_78_4 + xp_78_2 + xp_78_0
 + xp_73_0 + xp_63_1 + xp_60_1 + xp_50_1 + xp_46_0 + xp_44_1 + xp_44_0
 + xp_40_1 + xp_40_0 + xp_18_2 + xp_18_0 + xp_17_1 + xp_15_0 + xp_14_1
 + xp_13_1 + xp_13_0 + xp_9_0 <= 39587.8787878788
 r_13: + xp_129_0 + xp_128_2 + xp_126_4 + xp_123_1 + xp_120_2 + xp_120_1
 + xp_119_1 + xp_109_1 + xp_100_0 + xp_96_1 + xp_95_2 + xp_92_2
 + xp_91_0 + xp_90_0 + xp_80_0 + xp_79_0 + xp_68_0 + xp_63_0 + xp_60_0
 + xp_58_3 + xp_53_1 + xp_45_1 + xp_40_2 + xp_34_1 + xp_31_0 + xp_30_0
 + xp_18_3 + xp_17_0 + xp_13_2 + xp_9_1 <= 39587.8787878788
 r_14: + xp_131_2 + xp_131_1 + xp_131_0 + xp_126_3 + xp_126_2 + xp_125_1
 + xp_125_0 + xp_124_1 + xp_124_0 + xp_115_1 + xp_115_0 + xp_106_1
 + xp_99_2 + xp_99_1 + xp_98_2 + xp_98_1 + xp_94_2 + xp_94_1 + xp_94_0
 + xp_92_1 + xp_86_1 + xp_86_0 + xp_85_1 + xp_77_2 + xp_77_1 + xp_77_0
 + xp_68_2 + xp_68_1 + xp_65_1 + xp_65_0 + xp_58_2 + xp_58_1 + xp_56_0
 + xp_51_0 + xp_48_1 + xp_41_0 + xp_38_1 + xp_38_0 + xp_35_0 + xp_32_2
 + xp_32_1 + xp_30_1 + xp_24_3 + xp_24_2 + xp_24_1 + xp_20_0 + xp_19_1
 + xp_19_0 + xp_12_2 + xp_12_1 + xp_12_0 + xp_2_1 + xp_0_1 + xp_0_0
 <= 39587.8787878788
 r_15: + xp_131_2 + xp_131_0 + xp_126_4 + xp_126_3 + xp_126_2 + xp_125_0
 + xp_124_0 + xp_120_2 + xp_120_1 + xp_116_0 + xp_115_0 + xp_109_1
 + xp_99_1 + xp_98_1 + xp_96_1 + xp_94_2 + xp_94_0 + xp_92_2 + xp_92_1
 + xp_90_0 + xp_89_1 + xp_89_0 + xp_86_0 + xp_85_1 + xp_77_2 + xp_77_0
 + xp_68_2 + xp_68_1 + xp_68_0 + xp_65_0 + xp_58_3 + xp_58_2 + xp_58_1
 + xp_51_0 + xp_48_1 + xp_42_2 + xp_42_0 + xp_38_1 + xp_38_0 + xp_36_0
 + xp_32_2 + xp_32_1 + xp_28_1 + xp_24_2 + xp_24_1 + xp_19_1 + xp_12_2
 + xp_12_0 + xp_11_0 + xp_0_0 <= 39587.8787878788
 r_16: + xp_128_0 + xp_123_0 + xp_108_1 + xp_108_0 + xp_78_4 + xp_78_2
 + xp_78_1 + xp_78_0 + xp_73_0 + xp_67_0 + xp_57_0 + xp_46_0 + xp_44_1
 + xp_44_0 + xp_40_0 + xp_22_0 + xp_18_0 + xp_13_0 + xp_6_0 <= 40000
 r_17: + xp_129_1 + xp_128_1 + xp_126_0 + xp_124_1 + xp_112_2 + xp_112_1
 + xp_111_1 + xp_109_0 + xp_97_0 + xp_95_1 + xp_91_1 + xp_90_2 + xp_81_1
 + xp_80_1 + xp_79_1 + xp_68_3 + xp_63_1 + xp_62_0 + xp_61_0 + xp_60_1
 + xp_47_0 + xp_40_1 + xp_22_1 + xp_18_2 + xp_17_1 + xp_13_1 + xp_9_0
 + xp_1_0 + xp_0_1 <= 39102.2255752546
 r_18: + xp_126_4 + xp_126_1 + xp_126_0 + xp_106_0 + xp_99_0 + xp_98_0
 + xp_92_2 + xp_92_0 + xp_85_0 + xp_68_3 + xp_68_0 + xp_58_3 + xp_58_0
 + xp_48_0 + xp_32_0 + xp_30_0 + xp_26_0 + xp_24_0 + xp_5_0 + xp_2_0
 <= 40000
 r_19: + xp_131_1 + xp_125_1 + xp_124_1 + xp_116_1 + xp_115_1 + xp_110_0
 + xp_108_1 + xp_106_1 + xp_99_2 + xp_98_2 + xp_94_1 + xp_86_1 + xp_78_0
 + xp_77_1 + xp_65_1 + xp_56_0 + xp_42_1 + xp_28_0 + xp_24_3 + xp_19_0
 + xp_14_1 + xp_12_1 + xp_11_1 + xp_3_0 + xp_2_1 + xp_0_1
 <= 39587.8787878788
 r_20: + xp_129_0 + xp_128_2 + xp_123_1 + xp_119_1 + xp_119_0 + xp_112_0
 + xp_111_0 + xp_108_2 + xp_108_0 + xp_107_0 + xp_95_2 + xp_95_0
 + xp_91_2 + xp_91_0 + xp_82_1 + xp_81_0 + xp_80_0 + xp_79_0 + xp_78_3
 + xp_78_1 + xp_69_0 + xp_64_0 + xp_63_0 + xp_60_0 + xp_50_0 + xp_49_0
 + xp_45_1 + xp_45_0 + xp_40_2 + xp_18_3 + xp_18_1 + xp_17_0 + xp_14_0
 + xp_13_2 + xp_10_0 + xp_9_1 + xp_4_0 <= 39102.2255752546
 r_21: + xp_126_3 + xp_113_0 + xp_105_1 + xp_99_2 + xp_99_1 + xp_86_1
 + xp_86_0 + xp_77_2 + xp_77_1 + xp_77_0 + xp_68_2 + xp_65_1 + xp_65_0
 + xp_58_2 + xp_38_1 + xp_38_0 + xp_32_2 + xp_20_0 + xp_2_1 + xp_0_1
 + xp_0_0 <= 40000
 r_22: + xp_126_2 + xp_124_1 + xp_124_0 + xp_106_1 + xp_105_0 + xp_98_2
 + xp_98_1 + xp_94_2 + xp_94_1 + xp_94_0 + xp_92_1 + xp_85_1 + xp_83_0
 + xp_68_1 + xp_58_1 + xp_48_1 + xp_41_0 + xp_32_1 + xp_30_1 + xp_24_3
 + xp_24_2 + xp_24_1 <= 40000
 r_23: + xp_128_2 + xp_128_1 + xp_128_0 + xp_119_1 + xp_117_0 + xp_112_2
 + xp_112_1 + xp_111_1 + xp_104_0 + xp_100_0 + xp_95_2 + xp_95_1
 + xp_91_1 + xp_91_0 + xp_84_0 + xp_82_0 + xp_81_1 + xp_80_1 + xp_80_0
 + xp_79_1 + xp_79_0 + xp_78_4 + xp_78_2 + xp_73_0 + xp_60_1 + xp_60_0
 + xp_53_1 + xp_50_1 + xp_46_0 + xp_45_1 + xp_44_1 + xp_44_0 + xp_40_2
 + xp_40_1 + xp_40_0 + xp_34_1 + xp_21_0 + xp_18_3 + xp_18_2 + xp_18_0
 + xp_15_0 + xp_9_1 + xp_9_0 + xp_3_1 <= 39587.8787878788
 r_24: + xp_128_0 + xp_126_1 + xp_103_0 + xp_94_2 + xp_94_1 + xp_90_1
 + xp_89_1 + xp_74_1 + xp_61_1 + xp_40_0 + xp_39_0 + xp_38_1 + xp_22_0
 + xp_18_0 + xp_13_0 + xp_12_2 + xp_12_1 + xp_1_1 <= 40000
 r_25: + xp_131_0 + xp_127_0 + xp_126_4 + xp_126_3 + xp_126_2 + xp_126_0
 + xp_120_2 + xp_94_0 + xp_90_2 + xp_90_0 + xp_89_0 + xp_77_0 + xp_74_0
 + xp_61_0 + xp_42_0 + xp_38_0 + xp_32_1 + xp_24_1 + xp_12_0 + xp_1_0
 <= 40000
 r_26: + xp_128_2 + xp_128_1 + xp_123_1 + xp_121_0 + xp_112_2 + xp_112_1
 + xp_112_0 + xp_108_2 + xp_107_0 + xp_81_1 + xp_81_0 + xp_79_1
 + xp_79_0 + xp_78_3 + xp_67_1 + xp_64_0 + xp_60_1 + xp_60_0 + xp_57_1
 + xp_47_0 + xp_40_2 + xp_40_1 + xp_37_0 + xp_29_0 + xp_25_0 + xp_22_1
 + xp_18_3 + xp_18_2 + xp_18_1 + xp_17_1 + xp_17_0 + xp_13_2 + xp_13_1
 + xp_4_0 <= 39102.2255752546
 r_27: + xp_131_2 + xp_127_1 + xp_125_0 + xp_120_1 + xp_116_0 + xp_115_0
 + xp_108_0 + xp_99_1 + xp_98_1 + xp_96_1 + xp_94_2 + xp_92_2 + xp_92_1
 + xp_89_1 + xp_86_0 + xp_85_1 + xp_82_1 + xp_78_1 + xp_77_2 + xp_74_1
 + xp_72_0 + xp_67_0 + xp_65_0 + xp_58_3 + xp_58_2 + xp_58_1 + xp_57_0
 + xp_52_0 + xp_50_0 + xp_48_1 + xp_42_2 + xp_38_1 + xp_32_2 + xp_28_1
 + xp_24_2 + xp_23_0 + xp_19_1 + xp_14_0 + xp_12_2 + xp_11_0
 <= 39102.2255752546
 r_28: + xp_131_1 + xp_126_1 + xp_126_0 + xp_125_1 + xp_124_1 + xp_120_0
 + xp_116_1 + xp_115_1 + xp_109_0 + xp_99_2 + xp_99_0 + xp_98_2
 + xp_98_0 + xp_96_0 + xp_94_1 + xp_92_0 + xp_90_2 + xp_90_1 + xp_86_1
 + xp_85_0 + xp_77_1 + xp_75_0 + xp_68_3 + xp_65_1 + xp_58_0 + xp_54_0
 + xp_48_0 + xp_42_1 + xp_32_0 + xp_28_0 + xp_26_0 + xp_24_3 + xp_24_0
 + xp_19_0 + xp_12_1 + xp_11_1 + xp_0_1 <= 39102.2255752546
 r_29: + xp_129_1 + xp_129_0 + xp_95_2 + xp_95_1 + xp_95_0 + xp_93_0
 + xp_87_0 + xp_71_0 + xp_62_0 + xp_49_0 + xp_45_1 + xp_45_0 + xp_10_0
 + xp_9_1 + xp_9_0 + xp_1_1 + xp_1_0 <= 39102.2255752546
 r_30: + xp_125_1 + xp_125_0 + xp_121_0 + xp_102_0 + xp_99_2 + xp_99_1
 + xp_99_0 + xp_96_1 + xp_96_0 + xp_92_2 + xp_92_1 + xp_92_0 + xp_57_1
 + xp_57_0 + xp_37_0 + xp_26_0 + xp_23_0 + xp_11_1 + xp_11_0
 <= 39102.2255752546

Bounds
 0 <= xp_0_0 <= 218.130498246159
 0 <= xp_0_1 <= 18.1775415205133
 0 <= xp_1_0 <= 126.582712320222
 0 <= xp_1_1 <= 56.2589832534321
 0 <= xp_2_0 <= 26.5808463295773
 0 <= xp_2_1 <= 88.6028210985911
 0 <= xp_3_0 <= 126.399921399904
 0 <= xp_3_1 <= 56.1777428444019
 0 <= xp_4_0 <= 790.047745242263
 0 <= xp_5_0 <= 1084.97074012424
 0 <= xp_6_0 <= 1794.55493774763
 0 <= xp_7_0 <= 639.219848352082
 0 <= xp_8_0 <= 1511.97540751268
 0 <= xp_9_0 <= 50.0237818603622
 0 <= xp_9_1 <= 58.3610788370892
 0 <= xp_10_0 <= 54.9185165044334
 0 <= xp_11_0 <= 22.3918877389563
 0 <= xp_11_1 <= 19.1930466333911
 0 <= xp_12_0 <= 1433.21790848344
 0 <= xp_12_1 <= 477.739302827813
 0 <= xp_12_2 <= 159.246434275938
 0 <= xp_13_0 <= 116.468281395959
 0 <= xp_13_1 <= 19.4113802326598
 0 <= xp_13_2 <= 116.468281395959
 0 <= xp_14_0 <= 186.380730892034
 0 <= xp_14_1 <= 33.8874056167334
 0 <= xp_15_0 <= 507.864262001334
 0 <= xp_16_0 <= 2644.86783391363
 0 <= xp_17_0 <= 183.075261749616
 0 <= xp_17_1 <= 114.42203859351
 0 <= xp_18_0 <= 138.286408746139
 0 <= xp_18_1 <= 82.9718452476836
 0 <= xp_18_2 <= 27.6572817492279
 0 <= xp_18_3 <= 110.629126996911
 0 <= xp_19_0 <= 489.331293691314
 0 <= xp_19_1 <= 570.886509306533
 0 <= xp_20_0 <= 128.451241727917
 0 <= xp_21_0 <= 274.922621683852
 0 <= xp_22_0 <= 379.697361705023
 0 <= xp_22_1 <= 854.319063836301
 0 <= xp_23_0 <= 52.0801797139398
 0 <= xp_24_0 <= 157.474377853966
 0 <= xp_24_1 <= 104.982918569311
 0 <= xp_24_2 <= 52.4914592846553
 0 <= xp_24_3 <= 26.2457296423277
 0 <= xp_25_0 <= 579.746791416392
 0 <= xp_26_0 <= 15.3798249345348
 0 <= xp_27_0 <= 338.48816422444
 0 <= xp_28_0 <= 308.612003803574
 0 <= xp_28_1 <= 360.047337770837
 0 <= xp_29_0 <= 2452.19097132175
 0 <= xp_30_0 <= 141.307536456951
 0 <= xp_30_1 <= 42.3922609370852
 0 <= xp_31_0 <= 190.960658951113
 0 <= xp_32_0 <= 1734.83815958485
 0 <= xp_32_1 <= 346.96763191697
 0 <= xp_32_2 <= 173.483815958485
 0 <= xp_33_0 <= 8074.54010629545
 0 <= xp_34_0 <= 39.3711332262737
 0 <= xp_34_1 <= 472.453598715284
 0 <= xp_35_0 <= 261.523031719429
 0 <= xp_36_0 <= 319.543916343704
 0 <= xp_37_0 <= 365.551375482634
 0 <= xp_38_0 <= 309.64781901871
 0 <= xp_38_1 <= 25.8039849182258
 0 <= xp_39_0 <= 1576.39905187365
 0 <= xp_40_0 <= 327.221134997061
 0 <= xp_40_1 <= 130.888453998824
 0 <= xp_40_2 <= 392.665361996473
 0 <= xp_41_0 <= 80.0675006248529
 0 <= xp_42_0 <= 210.026767445394
 0 <= xp_42_1 <= 105.013383722697
 0 <= xp_42_2 <= 140.017844963596
 0 <= xp_43_0 <= 493.012499725496
 0 <= xp_44_0 <= 424.135865444557
 0 <= xp_44_1 <= 35.3446554537131
 0 <= xp_45_0 <= 39.3609781751449
 0 <= xp_45_1 <= 3.28008151459541
 0 <= xp_46_0 <= 1608.67688188647
 0 <= xp_47_0 <= 880.676499041045
 0 <= xp_48_0 <= 2688.18420450343
 0 <= xp_48_1 <= 224.015350375286
 0 <= xp_49_0 <= 88.2524718346483
 0 <= xp_50_0 <= 483.62415495694
 0 <= xp_50_1 <= 302.265096848088
 0 <= xp_51_0 <= 710.970362102466
 0 <= xp_52_0 <= 663.708754149131
 0 <= xp_53_0 <= 117.108049617072
 0 <= xp_53_1 <= 73.19253101067
 0 <= xp_54_0 <= 3700.8611356419
 0 <= xp_55_0 <= 1187.54691157603
 0 <= xp_56_0 <= 95.9753882180842
 0 <= xp_57_0 <= 174.707499619503
 0 <= xp_57_1 <= 31.7649999308187
 0 <= xp_58_0 <= 2803.44403481507
 0 <= xp_58_1 <= 700.861008703767
 0 <= xp_58_2 <= 350.430504351884
 0 <= xp_58_3 <= 700.861008703767
 0 <= xp_59_0 <= 10665.6115568544
 0 <= xp_60_0 <= 470.229642518082
 0 <= xp_60_1 <= 208.990952230259
 0 <= xp_61_0 <= 1492.26445327172
 0 <= xp_61_1 <= 932.665283294826
 0 <= xp_62_0 <= 131.487602015422
 0 <= xp_63_0 <= 101.601286543427
 0 <= xp_63_1 <= 30.4803859630282
 0 <= xp_64_0 <= 996.38822912791
 0 <= xp_65_0 <= 483.177332707274
 0 <= xp_65_1 <= 40.2647777256062
 0 <= xp_66_0 <= 1683.39774809202
 0 <= xp_67_0 <= 343.047782181262
 0 <= xp_67_1 <= 62.3723240329567
 0 <= xp_68_0 <= 567.819683865642
 0 <= xp_68_1 <= 681.38362063877
 0 <= xp_68_2 <= 113.563936773128
 0 <= xp_68_3 <= 113.563936773128
 0 <= xp_69_0 <= 1722.07833784154
 0 <= xp_70_0 <= 632.949104280062
 0 <= xp_71_0 <= 71.0244275946758
 0 <= xp_72_0 <= 600.275227273217
 0 <= xp_73_0 <= 924.901746706875
 0 <= xp_74_0 <= 881.72246930731
 0 <= xp_74_1 <= 73.4768724422758
 0 <= xp_75_0 <= 1767.62374215411
 0 <= xp_76_0 <= 1725.64276078774
 0 <= xp_77_0 <= 308.723709365991
 0 <= xp_77_1 <= 44.1033870522844
 0 <= xp_77_2 <= 220.516935261422
 0 <= xp_78_0 <= 2157.7909615729
 0 <= xp_78_1 <= 4315.58192314581
 0 <= xp_78_2 <= 12946.7457694374
 0 <= xp_78_3 <= 6473.37288471871
 0 <= xp_78_4 <= 2157.7909615729
 0 <= xp_79_0 <= 657.153668645505
 0 <= xp_79_1 <= 410.721042903441
 0 <= xp_80_0 <= 139.083580259748
 0 <= xp_80_1 <= 86.9272376623427
 0 <= xp_81_0 <= 181.054406574989
 0 <= xp_81_1 <= 80.4686251444397
 0 <= xp_82_0 <= 169.487803339311
 0 <= xp_82_1 <= 50.8463410017932
 0 <= xp_83_0 <= 505.091933043178
 0 <= xp_84_0 <= 892.22786970003
 0 <= xp_85_0 <= 126.064804712655
 0 <= xp_85_1 <= 283.645810603473
 0 <= xp_86_0 <= 158.662518836033
 0 <= xp_86_1 <= 13.2218765696694
 0 <= xp_87_0 <= 141.652808195329
 0 <= xp_88_0 <= 327.957376203897
 0 <= xp_88_1 <= 98.3872128611691
 0 <= xp_89_0 <= 2055.42296866925
 0 <= xp_89_1 <= 171.285247389105
 0 <= xp_90_0 <= 11717.4615977221
 0 <= xp_90_1 <= 6695.69234155549
 0 <= xp_90_2 <= 3347.84617077775
 0 <= xp_91_0 <= 1049.49914653142
 0 <= xp_91_1 <= 1469.29880514399
 0 <= xp_91_2 <= 209.899829306284
 0 <= xp_92_0 <= 51.587659734194
 0 <= xp_92_1 <= 5.1587659734194
 0 <= xp_92_2 <= 10.3175319468388
 0 <= xp_93_0 <= 130.827523692052
 0 <= xp_94_0 <= 182.892470829298
 0 <= xp_94_1 <= 36.5784941658596
 0 <= xp_94_2 <= 18.2892470829298
 0 <= xp_95_0 <= 28.3935229560643
 0 <= xp_95_1 <= 28.3935229560643
 0 <= xp_95_2 <= 4.73225382601071
 0 <= xp_96_0 <= 89.0597983993862
 0 <= xp_96_1 <= 26.7179395198159
 0 <= xp_97_0 <= 529.118784013868
 0 <= xp_98_0 <= 66.2312434618924
 0 <= xp_98_1 <= 55.1927028849104
 0 <= xp_98_2 <= 22.0770811539641
 0 <= xp_99_0 <= 8.85012705873034
 0 <= xp_99_1 <= 6.32151932766453
 0 <= xp_99_2 <= 1.26430386553291
 0 <= xp_100_0 <= 504.893909546167
 0 <= xp_101_0 <= 250.829762880825
 0 <= xp_102_0 <= 75.2489288642476
 0 <= xp_103_0 <= 1445.30749685225
 0 <= xp_104_0 <= 132.411711668141
 0 <= xp_105_0 <= 1343.51326433738
 0 <= xp_105_1 <= 111.959438694781
 0 <= xp_106_0 <= 38.3860932667822
 0 <= xp_106_1 <= 3.19884110556518
 0 <= xp_107_0 <= 451.493573185486
 0 <= xp_108_0 <= 327.830438064787
 0 <= xp_108_1 <= 196.698262838872
 0 <= xp_108_2 <= 327.830438064787
 0 <= xp_109_0 <= 522.548465933548
 0 <= xp_109_1 <= 447.898685085898
 0 <= xp_110_0 <= 133.731868314882
 0 <= xp_111_0 <= 2484.55511926917
 0 <= xp_111_1 <= 451.737294412576
 0 <= xp_112_0 <= 3615.04587607816
 0 <= xp_112_1 <= 723.009175215633
 0 <= xp_112_2 <= 361.504587607816
 0 <= xp_113_0 <= 427.070675220774
 0 <= xp_114_0 <= 2407.17362966788
 0 <= xp_115_0 <= 136.483887170781
 0 <= xp_115_1 <= 85.3024294817382
 0 <= xp_116_0 <= 98.6664767672105
 0 <= xp_116_1 <= 61.6665479795066
 0 <= xp_117_0 <= 1950.86148472179
 0 <= xp_118_0 <= 3167.05579553211
 0 <= xp_119_0 <= 53.3394060539083
 0 <= xp_119_1 <= 9.69807382798333
 0 <= xp_120_0 <= 1340.38550858971
 0 <= xp_120_1 <= 502.644565721142
 0 <= xp_120_2 <= 335.096377147428
 0 <= xp_121_0 <= 75.8429993552811
 0 <= xp_122_0 <= 2283.67297536524
 0 <= xp_123_0 <= 476.170347428417
 0 <= xp_123_1 <= 39.6808622857014
 0 <= xp_124_0 <= 127.588062381971
 0 <= xp_124_1 <= 10.6323385318309
 0 <= xp_125_0 <= 16.8573848737721
 0 <= xp_125_1 <= 10.5358655461075
 0 <= xp_126_0 <= 1959.87917012414
 0 <= xp_126_1 <= 9799.39585062072
 0 <= xp_126_2 <= 7839.51668049657
 0 <= xp_126_3 <= 3919.75834024829
 0 <= xp_126_4 <= 1959.87917012414
 0 <= xp_127_0 <= 222.725658881931
 0 <= xp_127_1 <= 356.36105421109
 0 <= xp_128_0 <= 156.81937705616
 0 <= xp_128_1 <= 31.363875411232
 0 <= xp_128_2 <= 219.547127878624
 0 <= xp_129_0 <= 34.0448089092294
 0 <= xp_129_1 <= 15.1310261818798
 0 <= xp_130_0 <= 405.222082717207
 0 <= xp_131_0 <= 296.451330076862
 0 <= xp_131_1 <= 355.741596092235
 0 <= xp_131_2 <= 118.580532030745

End
